c instance by G2
c solution = 001100101111011
c Known solution cost is 830 
p cnf 15 30
w 80 41 63 81 68 60 52 36 73 51 23 39 13 79 71
-1 -9 6 0
-15 -6 1 0
11 -13 14 0
2 4 -3 0
6 -1 4 0
-15 -4 3 0
6 9 -10 0
3 13 -9 0
2 -13 -9 0
10 -3 4 0
13 -9 -2 0
-7 12 6 0
13 15 -10 0
-13 15 7 0
11 -10 -4 0
-11 1 15 0
-9 11 -14 0
-8 5 -13 0
1 -4 10 0
2 -8 -7 0
5 1 9 0
-5 8 -14 0
11 1 8 0
-15 3 1 0
-11 3 -10 0
-7 -9 14 0
-13 11 -9 0
-1 -14 -9 0
-15 4 -9 0
-4 -11 7 0
